NAME : kroB200.13111.tour
COMMENT : Length = 13111
COMMENT : Found by LKH [Keld Helsgaun] Sat May 25 06:41:07 2013
TYPE : TOUR
DIMENSION : 40
TOUR_SECTION
98
12
90
9
27
61
94
178
186
196
89
182
33
128
51
156
48
187
148
36
18
105
55
143
88
173
141
184
30
75
69
194
197
39
189
142
85
158
91
29
-1
EOF
